NAME : kroC100-C-5-1-a__wo_all_bias_same_priority_ls20__26807.tour
COMMENT : Length = 26807.000
COMMENT : Generated by evaluate_ctspd.py for wo_all_bias_same_priority_ls20
TYPE : TOUR
DIMENSION : 100
TOUR_SECTION
45
81
97
96
87
52
11
84
48
10
92
66
44
1
53
24
32
7
82
78
9
26
61
46
27
15
13
79
64
20
42
55
67
65
31
47
6
54
75
22
8
17
25
90
34
58
98
88
28
39
38
71
56
43
5
86
72
83
62
50
95
94
91
76
70
23
21
89
41
30
68
35
2
80
77
29
37
16
51
63
18
49
85
40
12
93
4
60
59
73
3
69
74
100
33
57
36
14
99
19
-1
EOF
